db/inputs/3034194183258337711714200681265932450.smt2
(set-logic QF_FP)
(declare-const x0 (_ FloatingPoint 11 53))
(declare-const x1 (_ FloatingPoint 11 53))
(declare-const x2 (_ FloatingPoint 11 53))
(declare-const x3 (_ FloatingPoint 11 53))
(declare-const x4 (_ FloatingPoint 11 53))
(declare-const x5 (_ FloatingPoint 11 53))
(declare-const x6 (_ FloatingPoint 11 53))
(declare-const x7 (_ FloatingPoint 11 53))
(declare-const x8 (_ FloatingPoint 11 53))
(declare-const x9 (_ FloatingPoint 11 53))
(declare-const x10 (_ FloatingPoint 11 53))
(assert (fp.leq (fp.neg x8) (fp.add RNE x6 x10)))
(assert (fp.geq (fp.sub RNE x5 x9) (fp.mul RNE x3 x0)))
(assert (fp.gt (fp.mul RNE x1 x6) (fp.mul RNE x4 x2)))
(assert (fp.geq (fp.sub RNE x8 x2) (fp.sub RNE x10 x0)))
(assert (fp.eq (fp.add RNE x4 x0) (fp.mul RNE x2 x1)))
(assert (fp.lt (fp.neg x9) (fp.add RNE x7 x4)))
(assert (fp.lt (fp.div RNE x2 x9) (fp.add RNE x4 x1)))
(assert (fp.geq (fp.neg x4) (fp.div RNE x1 x0)))
(assert (fp.geq (fp.neg x2) (fp.mul RNE x1 x0)))
(assert (fp.geq (fp.sub RNE x10 x6) (fp.neg x7)))
(assert (fp.gt (fp.div RNE x4 x10) (fp.neg x7)))
(assert (fp.eq (fp.neg x5) (fp.add RNE x3 x2)))
(assert (fp.geq (fp.div RNE x3 x10) (fp.sub RNE x0 x5)))
(assert (fp.lt (fp.mul RNE x3 x9) (fp.mul RNE x4 x8)))
(assert (fp.gt (fp.sub RNE x1 x9) (fp.div RNE x2 x1)))
(assert (fp.leq (fp.add RNE x1 x1) (fp.add RNE x4 x7)))
(check-sat)
