db/data/3034194183258337711714200681265932450.z3.out
-------------------
2500.230166224
